NAME : tsp_152_sol.txt
COMMENT : OR-Tools Guided Local Search
TYPE : TOUR
DIMENSION : 50
COST : 5719
STATUS : ROUTING_SUCCESS
GAP : 0.00% (Reference Solution)
TOUR_SECTION
1
13
42
43
10
36
15
7
5
38
31
25
44
3
24
41
29
27
30
28
21
8
39
14
19
22
11
40
23
6
49
17
50
48
37
16
35
12
33
45
9
20
34
4
2
18
32
26
47
46
-1
